#######################################
### Exact MIP solver for the HHCRSP ###
#######################################
-- Instance file: new-instances/HHCRSP_75_15_37_1.2_C_RC.txt
-- Max threads: 4
-- Time limit: 999999 seconds
-- Use initial solution: No
Trivial flow violations prevented generating 19627 variables.
Model exported.
Version identifier: 20.1.0.0 | 2020-11-10 | 9bedb6d68
CPXPARAM_Threads                                 4
CPXPARAM_TimeLimit                               999999
Parallel mode: deterministic, using up to 4 threads for concurrent optimization:
 * Starting dual Simplex on 1 thread...
 * Starting Barrier on 3 threads...
Tried aggregator 1 time.
LP Presolve eliminated 3036 rows and 724 columns.
Reduced LP has 21708 rows, 21005 columns, and 201556 nonzeros.
Presolve time = 0.09 sec. (56.52 ticks)
Symmetry aggregator did 21162 additional substitutions.

Iteration log . . .
Iteration:     1   Dual objective     =             0.000000
Iteration:   321   Dual objective     =           148.679253

Dual crossover.
  Dual:  Fixing 142 variables.
      141 DMoves:  Infeasibility  2.90324007e-14  Objective  1.48690093e+02
        0 DMoves:  Infeasibility  1.32941637e-14  Objective  1.48690093e+02
  Dual:  Pushed 4, exchanged 138.
  Primal:  Fixing 63 variables.
       62 PMoves:  Infeasibility  1.11022302e-16  Objective  1.48690093e+02
        0 PMoves:  Infeasibility  3.33066907e-16  Objective  1.48690093e+02
  Primal:  Pushed 34, exchanged 29.

Dual simplex solved model.


Solution status from MIP model:
-- Processing time: 0.158 sec.
-- Memory used: 82.6064 MB
-- Best bound: inf
-- Obj value: 148.69
-- Gap: inf%
-- Total distance: 446.07
-- Total tardiness: 0
-- Largest tardiness: 0
